
Log started (V11.0.0) Fri May 16 20:33:11 2008

Tried aggregator 1 time.
Reduced MIP has 250 rows, 10001 columns, and 20050 nonzeros.
Presolve time =    0.08 sec.
Clique table members: 200.
MIP emphasis: balance optimality and feasibility.
MIP search method: dynamic search.
Parallel mode: none, using 1 thread.
Root relaxation solution time =    0.75 sec.

        Nodes                                         Cuts/
   Node  Left     Objective  IInf  Best Integer     Best Node    ItCnt     Gap

*     0+    0                        22018.0000      400.3800      651   98.18%
*     0+    0                          402.0000      400.3800      651    0.40%
      0     0      401.0000    63      402.0000      Fract: 6      662    0.25%
      0     0      401.0000    80      402.0000     Covers: 1      672    0.25%
      0     0      401.0000    87      402.0000     Covers: 2      706    0.25%
      0     2      401.0000    87      402.0000      401.0000      706    0.25%
    100    50      401.0000    73      402.0000      401.0000     8780    0.25%
    200    51    infeasible            402.0000      401.0000    13145    0.25%
    300    43      401.0000    74      402.0000      401.0000    25445    0.25%
    400   109      401.0000    82      402.0000      401.0000    37623    0.25%
    500   180      401.0000    79      402.0000      401.0000    43551    0.25%
    600   174    infeasible            402.0000      401.0000    57989    0.25%
    700   175      401.0000    67      402.0000      401.0000    65054    0.25%
    800    43    infeasible            402.0000      401.0000   114925    0.25%
    900    73      401.0000    78      402.0000      401.0000   137558    0.25%
   1000   125    infeasible            402.0000      401.0000   144979    0.25%
Elapsed time =  53.38 sec. (tree size =  0.85 MB, solutions = 2)
   1100   181      401.0000    92      402.0000      401.0000   160361    0.25%
   1200   221      401.0000    51      402.0000      401.0000   183951    0.25%
   1300   307      401.0000    55      402.0000      401.0000   189241    0.25%
   1400   375      401.0000    85      402.0000      401.0000   199461    0.25%
   1500   414      401.0000    71      402.0000      401.0000   221343    0.25%
   1600   448      401.0000    77      402.0000      401.0000   237348    0.25%
   1700   516      401.0000    89      402.0000      401.0000   249178    0.25%
   1800   564    infeasible            402.0000      401.0000   267213    0.25%
   1900   608      401.0000    92      402.0000      401.0000   289724    0.25%
   2000   690    infeasible            402.0000      401.0000   301565    0.25%
Elapsed time = 105.22 sec. (tree size =  5.05 MB, solutions = 2)
   2100   706      401.0000   108      402.0000      401.0000   332050    0.25%
   2200   762      401.0000   117      402.0000      401.0000   350424    0.25%
   2300   694      401.0000   103      402.0000      401.0000   401674    0.25%
   2400   770      401.0000    91      402.0000      401.0000   417500    0.25%
   2500   870      401.0000    80      402.0000      401.0000   424313    0.25%
   2600   902      401.0000   123      402.0000      401.0000   456465    0.25%
   2700   874    infeasible            402.0000      401.0000   496668    0.25%
   2800   934      401.0000   129      402.0000      401.0000   511796    0.25%
   2900   858    infeasible            402.0000      401.0000   564085    0.25%
   3000   758    infeasible            402.0000      401.0000   622949    0.25%
Elapsed time = 205.33 sec. (tree size =  6.02 MB, solutions = 2)
   3100   658    infeasible            402.0000      401.0000   686046    0.25%
   3200   558    infeasible            402.0000      401.0000   749183    0.25%
   3300   458    infeasible            402.0000      401.0000   810650    0.25%
   3400   358    infeasible            402.0000      401.0000   870783    0.25%
   3500   258    infeasible            402.0000      401.0000   924159    0.25%
   3600   158    infeasible            402.0000      401.0000   980329    0.25%
   3700    58    infeasible            402.0000      401.0000  1033475    0.25%

Cover cuts applied:  272
Gomory fractional cuts applied:  5

Solution pool: 2 solutions saved.

MIP - Integer optimal solution:  Objective = 4.0200000000e+002
Solution time =  362.28 sec.  Iterations = 1061323  Nodes = 3759


Incumbent solution
Variable Name           Solution Value
Cmax                        402.000000
X_1_21                        1.000000
X_2_39                        1.000000
X_3_49                        1.000000
X_4_38                        1.000000
X_5_36                        1.000000
X_6_3                         1.000000
X_7_30                        1.000000
X_8_43                        1.000000
X_9_33                        1.000000
X_10_45                       1.000000
X_11_17                       1.000000
X_12_41                       1.000000
X_13_10                       1.000000
X_14_25                       1.000000
X_15_6                        1.000000
X_16_32                       1.000000
X_17_4                        1.000000
X_18_9                        1.000000
X_19_24                       1.000000
X_20_26                       1.000000
X_21_23                       1.000000
X_22_14                       1.000000
X_23_39                       1.000000
X_24_35                       1.000000
X_25_26                       1.000000
X_26_34                       1.000000
X_27_10                       1.000000
X_28_8                        1.000000
X_29_28                       1.000000
X_30_1                        1.000000
X_31_5                        1.000000
X_32_13                       1.000000
X_33_32                       1.000000
X_34_31                       1.000000
X_35_20                       1.000000
X_36_46                       1.000000
X_37_46                       1.000000
X_38_22                       1.000000
X_39_27                       1.000000
X_40_8                        1.000000
X_41_28                       1.000000
X_42_25                       1.000000
X_43_4                        1.000000
X_44_14                       1.000000
X_45_5                        1.000000
X_46_20                       1.000000
X_47_37                       1.000000
X_48_17                       1.000000
X_49_34                       1.000000
X_50_13                       1.000000
X_51_16                       1.000000
X_52_25                       1.000000
X_53_31                       1.000000
X_54_27                       1.000000
X_55_34                       1.000000
X_56_37                       1.000000
X_57_9                        1.000000
X_58_12                       1.000000
X_59_48                       1.000000
X_60_2                        1.000000
X_61_19                       1.000000
X_62_22                       1.000000
X_63_18                       1.000000
X_64_40                       1.000000
X_65_2                        1.000000
X_66_15                       1.000000
X_67_36                       1.000000
X_68_45                       1.000000
X_69_40                       1.000000
X_70_4                        1.000000
X_71_23                       1.000000
X_72_33                       1.000000
X_73_15                       1.000000
X_74_18                       1.000000
X_75_12                       1.000000
X_76_29                       1.000000
X_77_40                       1.000000
X_78_38                       1.000000
X_79_33                       1.000000
X_80_22                       1.000000
X_81_32                       1.000000
X_82_11                       1.000000
X_83_4                        1.000000
X_84_28                       1.000000
X_85_41                       1.000000
X_86_7                        1.000000
X_87_2                        1.000000
X_88_32                       1.000000
X_89_11                       1.000000
X_90_3                        1.000000
X_91_19                       1.000000
X_92_21                       1.000000
X_93_37                       1.000000
X_94_19                       1.000000
X_95_13                       1.000000
X_96_47                       1.000000
X_97_27                       1.000000
X_98_29                       1.000000
X_99_12                       1.000000
X_100_49                      1.000000
X_101_29                      1.000000
X_102_50                      1.000000
X_103_14                      1.000000
X_104_21                      1.000000
X_105_40                      1.000000
X_106_7                       1.000000
X_107_22                      1.000000
X_108_41                      1.000000
X_109_30                      1.000000
X_110_14                      1.000000
X_111_42                      1.000000
X_112_42                      1.000000
X_113_1                       1.000000
X_114_16                      1.000000
X_115_37                      1.000000
X_116_5                       1.000000
X_117_36                      1.000000
X_118_20                      1.000000
X_119_44                      1.000000
X_120_44                      1.000000
X_121_49                      1.000000
X_122_38                      1.000000
X_123_2                       1.000000
X_124_16                      1.000000
X_125_50                      1.000000
X_126_27                      1.000000
X_127_35                      1.000000
X_128_11                      1.000000
X_129_44                      1.000000
X_130_11                      1.000000
X_131_19                      1.000000
X_132_31                      1.000000
X_133_36                      1.000000
X_134_34                      1.000000
X_135_46                      1.000000
X_136_48                      1.000000
X_137_44                      1.000000
X_138_39                      1.000000
X_139_8                       1.000000
X_140_28                      1.000000
X_141_1                       1.000000
X_142_13                      1.000000
X_143_49                      1.000000
X_144_9                       1.000000
X_145_47                      1.000000
X_146_33                      1.000000
X_147_35                      1.000000
X_148_7                       1.000000
X_149_35                      1.000000
X_150_10                      1.000000
X_151_50                      1.000000
X_152_1                       1.000000
X_153_26                      1.000000
X_154_10                      1.000000
X_155_24                      1.000000
X_156_24                      1.000000
X_157_6                       1.000000
X_158_46                      1.000000
X_159_6                       1.000000
X_160_21                      1.000000
X_161_45                      1.000000
X_162_42                      1.000000
X_163_6                       1.000000
X_164_9                       1.000000
X_165_31                      1.000000
X_166_16                      1.000000
X_167_38                      1.000000
X_168_29                      1.000000
X_169_17                      1.000000
X_170_5                       1.000000
X_171_15                      1.000000
X_172_15                      1.000000
X_173_3                       1.000000
X_174_42                      1.000000
X_175_43                      1.000000
X_176_23                      1.000000
X_177_30                      1.000000
X_178_48                      1.000000
X_179_12                      1.000000
X_180_24                      1.000000
X_181_18                      1.000000
X_182_30                      1.000000
X_183_18                      1.000000
X_184_48                      1.000000
X_185_43                      1.000000
X_186_23                      1.000000
X_187_47                      1.000000
X_188_50                      1.000000
X_189_3                       1.000000
X_190_17                      1.000000
X_191_8                       1.000000
X_192_7                       1.000000
X_193_25                      1.000000
X_194_26                      1.000000
X_195_45                      1.000000
X_196_43                      1.000000
X_197_47                      1.000000
X_198_41                      1.000000
X_199_20                      1.000000
X_200_39                      1.000000
All other variables in the range 1-10001 are 0.
